objective value:                                12161
t_x_6                                               1 	(obj:36)
t_x_7                                               1 	(obj:36)
t_x_17                                              1 	(obj:2)
t_x_21                                              1 	(obj:5)
t_x_23                                              1 	(obj:38)
t_x_24                                              1 	(obj:6)
t_x_25                                              1 	(obj:17)
t_x_30                                              1 	(obj:25)
t_x_34                                              1 	(obj:47)
t_x_35                                              1 	(obj:5)
t_x_36                                              1 	(obj:5)
t_x_37                                              1 	(obj:20)
t_x_47                                              1 	(obj:5)
t_x_49                                              1 	(obj:19)
t_x_56                                              1 	(obj:27)
t_x_57                                              1 	(obj:17)
t_x_59                                              1 	(obj:13)
t_x_63                                              1 	(obj:21)
t_x_71                                              1 	(obj:8)
t_x_72                                              1 	(obj:16)
t_x_82                                              1 	(obj:2)
t_x_83                                              1 	(obj:22)
t_x_84                                              1 	(obj:20)
t_x_92                                              1 	(obj:30)
t_x_93                                              1 	(obj:15)
t_x_95                                              1 	(obj:56)
t_x_99                                              1 	(obj:19)
t_x_100                                             1 	(obj:16)
t_x_102                                             1 	(obj:14)
t_x_105                                             1 	(obj:10)
t_x_106                                             1 	(obj:5)
t_x_108                                             1 	(obj:1)
t_x_112                                             1 	(obj:2)
t_x_113                                             1 	(obj:2)
t_x_114                                             1 	(obj:7)
t_x_117                                             1 	(obj:0)
t_x_118                                             1 	(obj:11)
t_x_119                                             1 	(obj:7)
t_x_122                                             1 	(obj:60)
t_x_124                                             1 	(obj:15)
t_x_126                                             1 	(obj:16)
t_x_128                                             1 	(obj:4)
t_x_139                                             1 	(obj:31)
t_x_141                                             1 	(obj:4)
t_x_145                                             1 	(obj:41)
t_x_146                                             1 	(obj:13)
t_x_152                                             1 	(obj:12)
t_x_153                                             1 	(obj:2)
t_x_154                                             1 	(obj:8)
t_x_157                                             1 	(obj:2)
t_x_161                                             1 	(obj:14)
t_x_163                                             1 	(obj:27)
t_x_168                                             1 	(obj:17)
t_x_171                                             1 	(obj:14)
t_x_172                                             1 	(obj:13)
t_x_174                                             1 	(obj:18)
t_x_177                                             1 	(obj:16)
t_x_181                                             1 	(obj:7)
t_x_183                                             1 	(obj:16)
t_x_186                                             1 	(obj:12)
t_x_192                                             1 	(obj:26)
t_x_193                                             1 	(obj:26)
t_x_197                                             1 	(obj:15)
t_x_198                                             1 	(obj:13)
t_x_199                                             1 	(obj:2)
t_x_204                                             1 	(obj:18)
t_x_210                                             1 	(obj:2)
t_x_213                                             1 	(obj:25)
t_x_217                                             1 	(obj:51)
t_x_222                                             1 	(obj:48)
t_x_226                                             1 	(obj:22)
t_x_228                                             1 	(obj:17)
t_x_237                                             1 	(obj:15)
t_x_242                                             1 	(obj:10)
t_x_247                                             1 	(obj:3)
t_x_248                                             1 	(obj:3)
t_x_254                                             1 	(obj:50)
t_x_257                                             1 	(obj:9)
t_x_260                                             1 	(obj:8)
t_x_263                                             1 	(obj:4)
t_x_264                                             1 	(obj:47)
t_x_267                                             1 	(obj:40)
t_x_268                                             1 	(obj:36)
t_x_269                                             1 	(obj:16)
t_x_273                                             1 	(obj:58)
t_x_275                                             1 	(obj:18)
t_x_277                                             1 	(obj:28)
t_x_279                                             1 	(obj:20)
t_x_282                                             1 	(obj:12)
t_x_285                                             1 	(obj:14)
t_x_287                                             1 	(obj:9)
t_x_302                                             1 	(obj:1)
t_x_305                                             1 	(obj:65)
t_x_306                                             1 	(obj:0)
t_x_308                                             1 	(obj:35)
t_x_311                                             1 	(obj:7)
t_x_313                                             1 	(obj:12)
t_x_316                                             1 	(obj:11)
t_x_318                                             1 	(obj:10)
t_x_319                                             1 	(obj:32)
t_x_323                                             1 	(obj:3)
t_x_324                                             1 	(obj:29)
t_x_325                                             1 	(obj:38)
t_x_337                                             1 	(obj:31)
t_x_339                                             1 	(obj:2)
t_x_340                                             1 	(obj:39)
t_x_342                                             1 	(obj:12)
t_x_344                                             1 	(obj:46)
t_x_345                                             1 	(obj:44)
t_x_350                                             1 	(obj:9)
t_x_353                                             1 	(obj:8)
t_x_356                                             1 	(obj:15)
t_x_361                                             1 	(obj:16)
t_x_362                                             1 	(obj:16)
t_x_364                                             1 	(obj:19)
t_x_365                                             1 	(obj:11)
t_x_366                                             1 	(obj:3)
t_x_374                                             1 	(obj:18)
t_x_376                                             1 	(obj:45)
t_x_377                                             1 	(obj:0)
t_x_378                                             1 	(obj:10)
t_x_379                                             1 	(obj:36)
t_x_380                                             1 	(obj:9)
t_x_385                                             1 	(obj:17)
t_x_390                                             1 	(obj:16)
t_x_391                                             1 	(obj:29)
t_x_393                                             1 	(obj:37)
t_x_394                                             1 	(obj:13)
t_x_395                                             1 	(obj:6)
t_x_396                                             1 	(obj:24)
t_x_398                                             1 	(obj:3)
t_x_400                                             1 	(obj:38)
t_x_403                                             1 	(obj:49)
t_x_404                                             1 	(obj:22)
t_x_405                                             1 	(obj:24)
t_x_406                                             1 	(obj:34)
t_x_414                                             1 	(obj:16)
t_x_425                                             1 	(obj:4)
t_x_427                                             1 	(obj:0)
t_x_432                                             1 	(obj:14)
t_x_434                                             1 	(obj:13)
t_x_438                                             1 	(obj:9)
t_x_440                                             1 	(obj:11)
t_x_441                                             1 	(obj:42)
t_x_442                                             1 	(obj:42)
t_x_443                                             1 	(obj:5)
t_x_447                                             1 	(obj:9)
t_x_452                                             1 	(obj:25)
t_x_453                                             1 	(obj:18)
t_x_455                                             1 	(obj:4)
t_x_456                                             1 	(obj:28)
t_x_457                                             1 	(obj:7)
t_x_469                                             1 	(obj:6)
t_x_470                                             1 	(obj:1)
t_x_472                                             1 	(obj:15)
t_x_477                                             1 	(obj:18)
t_x_479                                             1 	(obj:0)
t_x_480                                             1 	(obj:6)
t_x_483                                             1 	(obj:40)
t_x_484                                             1 	(obj:25)
t_x_485                                             1 	(obj:16)
t_x_487                                             1 	(obj:5)
t_x_488                                             1 	(obj:50)
t_x_490                                             1 	(obj:26)
t_x_493                                             1 	(obj:30)
t_x_494                                             1 	(obj:48)
t_x_495                                             1 	(obj:4)
t_x_496                                             1 	(obj:36)
t_x_503                                             1 	(obj:8)
t_x_504                                             1 	(obj:42)
t_x_505                                             1 	(obj:28)
t_x_508                                             1 	(obj:7)
t_x_510                                             1 	(obj:31)
t_x_511                                             1 	(obj:9)
t_x_512                                             1 	(obj:47)
t_x_518                                             1 	(obj:9)
t_x_519                                             1 	(obj:17)
t_x_523                                             1 	(obj:5)
t_x_525                                             1 	(obj:26)
t_x_526                                             1 	(obj:28)
t_x_528                                             1 	(obj:28)
t_x_529                                             1 	(obj:10)
t_x_533                                             1 	(obj:26)
t_x_535                                             1 	(obj:0)
t_x_537                                             1 	(obj:69)
t_x_538                                             1 	(obj:3)
t_x_543                                             1 	(obj:14)
t_x_552                                             1 	(obj:10)
t_x_553                                             1 	(obj:13)
t_x_555                                             1 	(obj:9)
t_x_558                                             1 	(obj:14)
t_x_561                                             1 	(obj:30)
t_x_562                                             1 	(obj:22)
t_x_563                                             1 	(obj:11)
t_x_564                                             1 	(obj:44)
t_x_566                                             1 	(obj:38)
t_x_568                                             1 	(obj:15)
t_x_569                                             1 	(obj:0)
t_x_570                                             1 	(obj:2)
t_x_571                                             1 	(obj:6)
t_x_574                                             1 	(obj:4)
t_x_576                                             1 	(obj:38)
t_x_578                                             1 	(obj:21)
t_x_582                                             1 	(obj:0)
t_x_584                                             1 	(obj:2)
t_x_589                                             1 	(obj:34)
t_x_590                                             1 	(obj:12)
t_x_592                                             1 	(obj:2)
t_x_596                                             1 	(obj:3)
t_x_600                                             1 	(obj:17)
t_x_601                                             1 	(obj:6)
t_x_605                                             1 	(obj:8)
t_x_609                                             1 	(obj:8)
t_x_610                                             1 	(obj:22)
t_x_612                                             1 	(obj:44)
t_x_615                                             1 	(obj:0)
t_x_617                                             1 	(obj:48)
t_x_619                                             1 	(obj:70)
t_x_636                                             1 	(obj:25)
t_x_646                                             1 	(obj:37)
t_x_648                                             1 	(obj:36)
t_x_650                                             1 	(obj:33)
t_x_662                                             1 	(obj:1)
t_x_663                                             1 	(obj:29)
t_x_667                                             1 	(obj:61)
t_x_671                                             1 	(obj:14)
t_x_678                                             1 	(obj:1)
t_x_682                                             1 	(obj:27)
t_x_686                                             1 	(obj:26)
t_x_687                                             1 	(obj:13)
t_x_691                                             1 	(obj:37)
t_x_697                                             1 	(obj:3)
t_x_704                                             1 	(obj:50)
t_x_705                                             1 	(obj:1)
t_x_708                                             1 	(obj:27)
t_x_709                                             1 	(obj:14)
t_x_710                                             1 	(obj:16)
t_x_712                                             1 	(obj:2)
t_x_717                                             1 	(obj:11)
t_x_718                                             1 	(obj:12)
t_x_721                                             1 	(obj:17)
t_x_723                                             1 	(obj:22)
t_x_728                                             1 	(obj:13)
t_x_730                                             1 	(obj:31)
t_x_733                                             1 	(obj:8)
t_x_735                                             1 	(obj:28)
t_x_736                                             1 	(obj:24)
t_x_743                                             1 	(obj:11)
t_x_747                                             1 	(obj:2)
t_x_756                                             1 	(obj:48)
t_x_757                                             1 	(obj:22)
t_x_761                                             1 	(obj:19)
t_x_763                                             1 	(obj:26)
t_x_765                                             1 	(obj:2)
t_x_768                                             1 	(obj:14)
t_x_770                                             1 	(obj:42)
t_x_771                                             1 	(obj:2)
t_x_772                                             1 	(obj:22)
t_x_773                                             1 	(obj:0)
t_x_777                                             1 	(obj:45)
t_x_782                                             1 	(obj:5)
t_x_784                                             1 	(obj:6)
t_x_789                                             1 	(obj:6)
t_x_792                                             1 	(obj:9)
t_x_795                                             1 	(obj:18)
t_x_800                                             1 	(obj:14)
t_x_806                                             1 	(obj:6)
t_x_812                                             1 	(obj:0)
t_x_816                                             1 	(obj:2)
t_x_821                                             1 	(obj:13)
t_x_822                                             1 	(obj:4)
t_x_826                                             1 	(obj:11)
t_x_830                                             1 	(obj:11)
t_x_831                                             1 	(obj:24)
t_x_832                                             1 	(obj:9)
t_x_833                                             1 	(obj:21)
t_x_838                                             1 	(obj:0)
t_x_839                                             1 	(obj:34)
t_x_843                                             1 	(obj:1)
t_x_850                                             1 	(obj:15)
t_x_852                                             1 	(obj:16)
t_x_854                                             1 	(obj:31)
t_x_858                                             1 	(obj:9)
t_x_868                                             1 	(obj:22)
t_x_872                                             1 	(obj:32)
t_x_880                                             1 	(obj:25)
t_x_882                                             1 	(obj:34)
t_x_886                                             1 	(obj:14)
t_x_889                                             1 	(obj:45)
t_x_890                                             1 	(obj:10)
t_x_896                                             1 	(obj:1)
t_x_897                                             1 	(obj:38)
t_x_901                                             1 	(obj:19)
t_x_904                                             1 	(obj:14)
t_x_909                                             1 	(obj:7)
t_x_911                                             1 	(obj:2)
t_x_914                                             1 	(obj:13)
t_x_917                                             1 	(obj:8)
t_x_918                                             1 	(obj:43)
t_x_920                                             1 	(obj:17)
t_x_922                                             1 	(obj:45)
t_x_925                                             1 	(obj:13)
t_x_934                                             1 	(obj:12)
t_x_936                                             1 	(obj:8)
t_x_937                                             1 	(obj:28)
t_x_943                                             1 	(obj:65)
t_x_945                                             1 	(obj:2)
t_x_947                                             1 	(obj:40)
t_x_951                                             1 	(obj:41)
t_x_957                                             1 	(obj:1)
t_x_964                                             1 	(obj:40)
t_x_965                                             1 	(obj:24)
t_x_968                                             1 	(obj:15)
t_x_973                                             1 	(obj:5)
t_x_975                                             1 	(obj:26)
t_x_980                                             1 	(obj:5)
t_x_989                                             1 	(obj:4)
t_x_993                                             1 	(obj:20)
t_x_996                                             1 	(obj:2)
t_x_1002                                            1 	(obj:13)
t_x_1007                                            1 	(obj:17)
t_x_1015                                            1 	(obj:90)
t_x_1018                                            1 	(obj:5)
t_x_1023                                            1 	(obj:16)
t_x_1025                                            1 	(obj:42)
t_x_1029                                            1 	(obj:24)
t_x_1031                                            1 	(obj:32)
t_x_1033                                            1 	(obj:8)
t_x_1034                                            1 	(obj:17)
t_x_1038                                            1 	(obj:19)
t_x_1039                                            1 	(obj:26)
t_x_1040                                            1 	(obj:5)
t_x_1044                                            1 	(obj:25)
t_x_1049                                            1 	(obj:22)
t_x_1052                                            1 	(obj:13)
t_x_1056                                            1 	(obj:37)
t_x_1066                                            1 	(obj:51)
t_x_1068                                            1 	(obj:8)
t_x_1069                                            1 	(obj:16)
t_x_1070                                            1 	(obj:13)
t_x_1071                                            1 	(obj:12)
t_x_1075                                            1 	(obj:2)
t_x_1076                                            1 	(obj:52)
t_x_1077                                            1 	(obj:5)
t_x_1084                                            1 	(obj:21)
t_x_1089                                            1 	(obj:20)
t_x_1090                                            1 	(obj:5)
t_x_1095                                            1 	(obj:10)
t_x_1100                                            1 	(obj:12)
t_x_1109                                            1 	(obj:21)
t_x_1130                                            1 	(obj:20)
t_x_1131                                            1 	(obj:22)
t_x_1134                                            1 	(obj:34)
t_x_1135                                            1 	(obj:1)
t_x_1141                                            1 	(obj:19)
t_x_1142                                            1 	(obj:22)
t_x_1144                                            1 	(obj:0)
t_x_1148                                            1 	(obj:17)
t_x_1149                                            1 	(obj:25)
t_x_1159                                            1 	(obj:2)
t_x_1161                                            1 	(obj:5)
t_x_1165                                            1 	(obj:8)
t_x_1167                                            1 	(obj:12)
t_x_1170                                            1 	(obj:10)
t_x_1171                                            1 	(obj:29)
t_x_1172                                            1 	(obj:15)
t_x_1174                                            1 	(obj:8)
t_x_1175                                            1 	(obj:13)
t_x_1177                                            1 	(obj:0)
t_x_1180                                            1 	(obj:20)
t_x_1186                                            1 	(obj:1)
t_x_1189                                            1 	(obj:34)
t_x_1196                                            1 	(obj:40)
t_x_1197                                            1 	(obj:36)
t_x_1206                                            1 	(obj:13)
t_x_1209                                            1 	(obj:7)
t_x_1212                                            1 	(obj:48)
t_x_1213                                            1 	(obj:24)
t_x_1217                                            1 	(obj:26)
t_x_1218                                            1 	(obj:2)
t_x_1220                                            1 	(obj:17)
t_x_1225                                            1 	(obj:21)
t_x_1226                                            1 	(obj:1)
t_x_1228                                            1 	(obj:12)
t_x_1229                                            1 	(obj:48)
t_x_1231                                            1 	(obj:26)
t_x_1235                                            1 	(obj:4)
t_x_1241                                            1 	(obj:30)
t_x_1246                                            1 	(obj:6)
t_x_1249                                            1 	(obj:15)
t_x_1252                                            1 	(obj:37)
t_x_1253                                            1 	(obj:10)
t_x_1257                                            1 	(obj:17)
t_x_1261                                            1 	(obj:19)
t_x_1263                                            1 	(obj:24)
t_x_1268                                            1 	(obj:6)
t_x_1269                                            1 	(obj:96)
t_x_1274                                            1 	(obj:21)
t_x_1276                                            1 	(obj:27)
t_x_1281                                            1 	(obj:26)
t_x_1295                                            1 	(obj:17)
t_x_1297                                            1 	(obj:22)
t_x_1299                                            1 	(obj:3)
t_x_1307                                            1 	(obj:41)
t_x_1318                                            1 	(obj:74)
t_x_1319                                            1 	(obj:7)
t_x_1330                                            1 	(obj:47)
t_x_1331                                            1 	(obj:16)
t_x_1340                                            1 	(obj:42)
t_x_1342                                            1 	(obj:9)
t_x_1344                                            1 	(obj:29)
t_x_1349                                            1 	(obj:31)
t_x_1352                                            1 	(obj:33)
t_x_1353                                            1 	(obj:34)
t_x_1358                                            1 	(obj:40)
t_x_1359                                            1 	(obj:1)
t_x_1365                                            1 	(obj:20)
t_x_1367                                            1 	(obj:29)
t_x_1376                                            1 	(obj:25)
t_x_1378                                            1 	(obj:30)
t_x_1379                                            1 	(obj:11)
t_x_1384                                            1 	(obj:3)
t_x_1389                                            1 	(obj:18)
t_x_1390                                            1 	(obj:19)
t_x_1395                                            1 	(obj:37)
t_x_1397                                            1 	(obj:39)
t_x_1400                                            1 	(obj:11)
t_x_1401                                            1 	(obj:43)
t_x_1402                                            1 	(obj:8)
t_x_1404                                            1 	(obj:9)
t_x_1405                                            1 	(obj:10)
t_x_1409                                            1 	(obj:11)
t_x_1414                                            1 	(obj:36)
t_x_1417                                            1 	(obj:14)
t_x_1419                                            1 	(obj:39)
t_x_1420                                            1 	(obj:13)
t_x_1423                                            1 	(obj:22)
t_x_1424                                            1 	(obj:0)
t_x_1443                                            1 	(obj:9)
t_x_1449                                            1 	(obj:12)
t_x_1450                                            1 	(obj:1)
t_x_1456                                            1 	(obj:6)
t_x_1460                                            1 	(obj:18)
t_x_1464                                            1 	(obj:3)
t_x_1468                                            1 	(obj:6)
t_x_1471                                            1 	(obj:25)
t_x_1474                                            1 	(obj:15)
t_x_1475                                            1 	(obj:2)
t_x_1476                                            1 	(obj:25)
t_x_1478                                            1 	(obj:48)
t_x_1483                                            1 	(obj:24)
t_x_1484                                            1 	(obj:23)
t_x_1486                                            1 	(obj:20)
t_x_1487                                            1 	(obj:4)
t_x_1496                                            1 	(obj:50)
t_x_1499                                            1 	(obj:30)
t_x_1500                                            1 	(obj:36)
t_x_1505                                            1 	(obj:4)
t_x_1506                                            1 	(obj:30)
t_x_1511                                            1 	(obj:12)
t_x_1513                                            1 	(obj:57)
t_x_1514                                            1 	(obj:35)
t_x_1515                                            1 	(obj:5)
t_x_1520                                            1 	(obj:18)
t_x_1522                                            1 	(obj:1)
t_x_1529                                            1 	(obj:13)
t_x_1540                                            1 	(obj:14)
t_x_1542                                            1 	(obj:15)
t_x_1545                                            1 	(obj:32)
t_x_1550                                            1 	(obj:17)
t_x_1562                                            1 	(obj:35)
t_x_1565                                            1 	(obj:3)
t_x_1568                                            1 	(obj:29)
t_x_1569                                            1 	(obj:8)
t_x_1574                                            1 	(obj:12)
t_x_1576                                            1 	(obj:17)
t_x_1584                                            1 	(obj:2)
t_x_1588                                            1 	(obj:12)
t_x_1591                                            1 	(obj:63)
t_x_1592                                            1 	(obj:25)
t_x_1594                                            1 	(obj:36)
t_x_1595                                            1 	(obj:35)
t_x_1602                                            1 	(obj:20)
t_x_1606                                            1 	(obj:37)
t_x_1608                                            1 	(obj:70)
t_x_1612                                            1 	(obj:12)
t_x_1622                                            1 	(obj:19)
t_x_1625                                            1 	(obj:17)
t_x_1626                                            1 	(obj:23)
t_x_1628                                            1 	(obj:22)
t_x_1629                                            1 	(obj:13)
t_x_1632                                            1 	(obj:8)
t_x_1633                                            1 	(obj:5)
t_x_1638                                            1 	(obj:32)
t_x_1640                                            1 	(obj:13)
t_x_1641                                            1 	(obj:40)
t_x_1646                                            1 	(obj:0)
t_x_1649                                            1 	(obj:32)
t_x_1651                                            1 	(obj:33)
t_x_1654                                            1 	(obj:6)
t_x_1657                                            1 	(obj:32)
t_x_1658                                            1 	(obj:4)
t_x_1659                                            1 	(obj:5)
t_x_1660                                            1 	(obj:6)
t_x_1662                                            1 	(obj:14)
t_x_1666                                            1 	(obj:9)
t_x_1668                                            1 	(obj:28)
t_x_1669                                            1 	(obj:1)
t_x_1673                                            1 	(obj:25)
t_x_1676                                            1 	(obj:1)
t_x_1678                                            1 	(obj:2)
t_x_1679                                            1 	(obj:10)
t_x_1681                                            1 	(obj:8)
t_x_1682                                            1 	(obj:10)
t_x_1686                                            1 	(obj:16)
t_x_1689                                            1 	(obj:31)
t_x_1693                                            1 	(obj:32)
t_x_1700                                            1 	(obj:32)
t_x_1702                                            1 	(obj:2)
t_x_1704                                            1 	(obj:4)
t_x_1705                                            1 	(obj:4)
t_x_1708                                            1 	(obj:1)
t_x_1711                                            1 	(obj:11)
t_x_1714                                            1 	(obj:9)
t_x_1715                                            1 	(obj:47)
t_x_1725                                            1 	(obj:52)
t_x_1726                                            1 	(obj:11)
t_x_1729                                            1 	(obj:26)
t_x_1732                                            1 	(obj:28)
t_x_1735                                            1 	(obj:47)
t_x_1736                                            1 	(obj:4)
t_x_1743                                            1 	(obj:5)
t_x_1747                                            1 	(obj:32)
t_x_1750                                            1 	(obj:19)
t_x_1752                                            1 	(obj:30)
t_x_1755                                            1 	(obj:24)
t_x_1757                                            1 	(obj:5)
t_x_1761                                            1 	(obj:19)
t_x_1762                                            1 	(obj:18)
t_x_1764                                            1 	(obj:5)
t_x_1765                                            1 	(obj:28)
t_x_1769                                            1 	(obj:23)
t_x_1776                                            1 	(obj:7)
t_x_1779                                            1 	(obj:20)
t_x_1780                                            1 	(obj:4)
t_x_1783                                            1 	(obj:10)
t_x_1784                                            1 	(obj:1)
t_x_1785                                            1 	(obj:13)
t_x_1788                                            1 	(obj:34)
t_x_1789                                            1 	(obj:2)
t_x_1790                                            1 	(obj:25)
t_x_1791                                            1 	(obj:45)
t_x_1794                                            1 	(obj:17)
t_x_1795                                            1 	(obj:18)
t_x_1796                                            1 	(obj:12)
t_x_1805                                            1 	(obj:20)
t_x_1806                                            1 	(obj:21)
t_x_1807                                            1 	(obj:12)
t_x_1808                                            1 	(obj:29)
t_x_1810                                            1 	(obj:37)
t_x_1814                                            1 	(obj:47)
t_x_1823                                            1 	(obj:30)
t_x_1824                                            1 	(obj:9)
t_x_1827                                            1 	(obj:42)
t_x_1829                                            1 	(obj:42)
t_x_1833                                            1 	(obj:15)
t_x_1834                                            1 	(obj:9)
t_x_1835                                            1 	(obj:13)
t_x_1836                                            1 	(obj:38)
t_x_1840                                            1 	(obj:40)
t_x_1841                                            1 	(obj:22)
t_x_1846                                            1 	(obj:3)
t_x_1849                                            1 	(obj:30)
t_x_1853                                            1 	(obj:22)
t_x_1858                                            1 	(obj:29)
t_x_1867                                            1 	(obj:35)
t_x_1872                                            1 	(obj:16)
t_x_1875                                            1 	(obj:41)
t_x_1877                                            1 	(obj:10)
t_x_1881                                            1 	(obj:25)
t_x_1882                                            1 	(obj:12)
t_x_1884                                            1 	(obj:1)
t_x_1887                                            1 	(obj:14)
t_x_1888                                            1 	(obj:19)
t_x_1892                                            1 	(obj:9)
t_x_1897                                            1 	(obj:9)
t_x_1900                                            1 	(obj:14)
t_x_1903                                            1 	(obj:35)
t_x_1904                                            1 	(obj:37)
t_x_1905                                            1 	(obj:14)
t_x_1911                                            1 	(obj:13)
t_x_1912                                            1 	(obj:16)
t_x_1913                                            1 	(obj:13)
t_x_1916                                            1 	(obj:7)
t_x_1923                                            1 	(obj:1)
t_x_1929                                            1 	(obj:39)
t_x_1930                                            1 	(obj:0)
t_x_1933                                            1 	(obj:75)
t_x_1935                                            1 	(obj:14)
t_x_1938                                            1 	(obj:39)
t_x_1945                                            1 	(obj:0)
t_x_1951                                            1 	(obj:32)
t_x_1954                                            1 	(obj:31)
t_x_1960                                            1 	(obj:25)
t_x_1964                                            1 	(obj:41)
t_x_1965                                            1 	(obj:5)
t_x_1968                                            1 	(obj:20)
t_x_1970                                            1 	(obj:1)
t_x_1971                                            1 	(obj:47)
t_x_1976                                            1 	(obj:43)
t_x_1977                                            1 	(obj:35)
t_x_1980                                            1 	(obj:1)
t_x_1985                                            1 	(obj:30)
t_x_1986                                            1 	(obj:68)
t_x_1987                                            1 	(obj:9)
t_x_1994                                            1 	(obj:5)
t_x_1995                                            1 	(obj:15)
